p cnf 91 287
37 38 39 0
-37 -38 0
-37 -39 0
-38 -39 0
40 41 42 0
-40 -41 0
-40 -42 0
-41 -42 0
-38 41 42 0
-39 42 0
-1 37 0
1 -37 0
-2 37 38 0
2 -37 0
2 -38 0
-3 38 39 0
3 -38 0
3 -39 0
-4 39 40 0
4 -39 0
4 -40 0
-5 41 0
5 -41 0
-6 42 0
6 -42 0
43 44 0
-43 -44 0
45 46 0
-45 -46 0
-44 46 0
-7 43 0
7 -43 0
-8 44 0
8 -44 0
-9 45 0
9 -45 0
-10 45 46 0
10 -45 0
10 -46 0
-11 45 46 0
11 -45 0
11 -46 0
-12 46 0
12 -46 0
47 48 49 0
-47 -48 0
-47 -49 0
-48 -49 0
50 51 52 0
-50 -51 0
-50 -52 0
-51 -52 0
-48 51 52 0
-49 52 0
-13 47 0
13 -47 0
-14 48 0
14 -48 0
-15 49 50 0
15 -49 0
15 -50 0
-16 50 51 0
16 -50 0
16 -51 0
-17 51 52 0
17 -51 0
17 -52 0
-18 52 0
18 -52 0
53 54 55 56 0
-53 -54 0
-53 -55 0
-53 -56 0
-54 -55 0
-54 -56 0
-55 -56 0
-19 53 0
19 -53 0
-20 53 54 0
20 -53 0
20 -54 0
-21 53 54 55 0
21 -53 0
21 -54 0
21 -55 0
-22 54 55 56 0
22 -54 0
22 -55 0
22 -56 0
-23 55 56 0
23 -55 0
23 -56 0
-24 56 0
24 -56 0
57 58 59 0
-57 -58 0
-57 -59 0
-58 -59 0
-25 57 0
25 -57 0
-26 57 58 0
26 -57 0
26 -58 0
-27 57 58 59 0
27 -57 0
27 -58 0
27 -59 0
-28 57 58 59 0
28 -57 0
28 -58 0
28 -59 0
-29 58 59 0
29 -58 0
29 -59 0
-30 59 0
30 -59 0
60 61 62 63 64 65 0
-60 -61 0
-60 -62 0
-60 -63 0
-60 -64 0
-60 -65 0
-61 -62 0
-61 -63 0
-61 -64 0
-61 -65 0
-62 -63 0
-62 -64 0
-62 -65 0
-63 -64 0
-63 -65 0
-64 -65 0
-31 60 0
31 -60 0
-32 61 0
32 -61 0
-33 62 0
33 -62 0
-34 63 0
34 -63 0
-35 64 0
35 -64 0
-36 65 0
36 -65 0
66 67 68 69 70 71 0
-66 -67 0
-66 -68 0
-66 -69 0
-66 -70 0
-66 -71 0
-67 -68 0
-67 -69 0
-67 -70 0
-67 -71 0
-68 -69 0
-68 -70 0
-68 -71 0
-69 -70 0
-69 -71 0
-70 -71 0
-1 66 0
1 -66 0
-7 67 0
7 -67 0
-13 68 0
13 -68 0
-19 69 0
19 -69 0
-25 70 0
25 -70 0
-31 71 0
31 -71 0
72 73 0
-72 -73 0
-2 72 0
2 -72 0
-8 72 73 0
8 -72 0
8 -73 0
-14 72 73 0
14 -72 0
14 -73 0
-20 72 73 0
20 -72 0
20 -73 0
-26 72 73 0
26 -72 0
26 -73 0
-32 73 0
32 -73 0
74 75 76 77 78 0
-74 -75 0
-74 -76 0
-74 -77 0
-74 -78 0
-75 -76 0
-75 -77 0
-75 -78 0
-76 -77 0
-76 -78 0
-77 -78 0
-3 74 0
3 -74 0
-9 74 75 0
9 -74 0
9 -75 0
-15 75 76 0
15 -75 0
15 -76 0
-21 76 77 0
21 -76 0
21 -77 0
-27 77 78 0
27 -77 0
27 -78 0
-33 78 0
33 -78 0
79 80 0
-79 -80 0
-4 79 0
4 -79 0
-10 79 80 0
10 -79 0
10 -80 0
-16 79 80 0
16 -79 0
16 -80 0
-22 79 80 0
22 -79 0
22 -80 0
-28 79 80 0
28 -79 0
28 -80 0
-34 80 0
34 -80 0
81 82 83 0
-81 -82 0
-81 -83 0
-82 -83 0
84 85 86 0
-84 -85 0
-84 -86 0
-85 -86 0
-82 85 86 0
-83 86 0
-5 81 0
5 -81 0
-11 81 82 0
11 -81 0
11 -82 0
-17 82 83 0
17 -82 0
17 -83 0
-23 83 84 0
23 -83 0
23 -84 0
-29 85 0
29 -85 0
-35 86 0
35 -86 0
87 88 89 90 91 0
-87 -88 0
-87 -89 0
-87 -90 0
-87 -91 0
-88 -89 0
-88 -90 0
-88 -91 0
-89 -90 0
-89 -91 0
-90 -91 0
-6 87 0
6 -87 0
-12 87 88 0
12 -87 0
12 -88 0
-18 88 89 0
18 -88 0
18 -89 0
-24 89 90 0
24 -89 0
24 -90 0
-30 90 91 0
30 -90 0
30 -91 0
-36 91 0
36 -91 0